objective value:                                   1828
sq1_0_0_50                                           1 	(obj:50)
sq1_0_1_72                                           1 	(obj:72)
sq1_0_2_16                                           1 	(obj:16)
sq1_1_0_12                                           1 	(obj:12)
sq1_1_1_46                                           1 	(obj:46)
sq2_0_0_77                                           1  (obj:77)
sq2_0_1_76                                           1 	(obj:76)
sq2_0_2_20                                           1 	(obj:20)
sq2_1_0_1 1 (obj:1)
sq2_1_1_58 1 (obj:58)
sq2_2_0_95 1 (obj:95)
sq2_2_1_40 1 (obj:40)
sq3_0_0_80                                           1 	(obj:80)
sq3_0_1_75 1 (obj:75)
sq3_0_2_53 1 (obj:53)
sq3_1_0_43                                           1 	(obj:43)
sq3_1_1_69 1 (obj:69)
sq3_1_2_96 1 (obj:96)
sq3_2_2_59 1 (obj:59)
sq4_0_0_114 1 (obj:114)
sq4_0_1_85 1 (obj:85)
sq4_0_2_64 1 (obj:64)
sq4_1_0_39 1 (obj:39)
sq4_1_1_88 1 (obj:88)
sq4_1_2_137 1 (obj:137)
sq4_2_0_111 1 (obj:111)
sq4_2_1_90 1 (obj:90)
sq4_2_2_62 1 (obj:62)
magic1 139 (obj:0)
magic2 174 (obj:0)
magic3 208 (obj:0)
magic4 264 (obj:0)
